c t pmc
p cnf 30 167
c p show 1 2 3 4 5 6 7 8 9 10 11 12 13 14 15 16 17 18 19 20 21 22 23 24 25 26 27 0
-4 -1 0
-7 -1 0
-1 -4 0
-7 -4 0
-1 -7 0
-4 -7 0
-13 -10 0
-16 -10 0
-10 -13 0
-16 -13 0
-10 -16 0
-13 -16 0
-22 -19 0
-25 -19 0
-19 -22 0
-25 -22 0
-19 -25 0
-22 -25 0
-5 -2 0
-8 -2 0
-2 -5 0
-8 -5 0
-2 -8 0
-5 -8 0
-14 -11 0
-17 -11 0
-11 -14 0
-17 -14 0
-11 -17 0
-14 -17 0
-23 -20 0
-26 -20 0
-20 -23 0
-26 -23 0
-20 -26 0
-23 -26 0
-6 -3 0
-9 -3 0
-3 -6 0
-9 -6 0
-3 -9 0
-6 -9 0
-15 -12 0
-18 -12 0
-12 -15 0
-18 -15 0
-12 -18 0
-15 -18 0
-24 -21 0
-27 -21 0
-21 -24 0
-27 -24 0
-21 -27 0
-24 -27 0
-10 -1 0
-19 -1 0
-1 -10 0
-19 -10 0
-1 -19 0
-10 -19 0
-13 -4 0
-22 -4 0
-4 -13 0
-22 -13 0
-4 -22 0
-13 -22 0
-16 -7 0
-25 -7 0
-7 -16 0
-25 -16 0
-7 -25 0
-16 -25 0
-11 -2 0
-20 -2 0
-2 -11 0
-20 -11 0
-2 -20 0
-11 -20 0
-14 -5 0
-23 -5 0
-5 -14 0
-23 -14 0
-5 -23 0
-14 -23 0
-17 -8 0
-26 -8 0
-8 -17 0
-26 -17 0
-8 -26 0
-17 -26 0
-12 -3 0
-21 -3 0
-3 -12 0
-21 -12 0
-3 -21 0
-12 -21 0
-15 -6 0
-24 -6 0
-6 -15 0
-24 -15 0
-6 -24 0
-15 -24 0
-18 -9 0
-27 -9 0
-9 -18 0
-27 -18 0
-9 -27 0
-18 -27 0
-28 1 0
-28 5 0
-28 9 0
-29 10 0
-29 14 0
-29 18 0
-30 19 0
-30 23 0
-30 27 0
-28 1 0
-28 11 0
-28 21 0
-29 4 0
-29 14 0
-29 24 0
-30 7 0
-30 17 0
-30 27 0
1 2 3 0
-1 -2 0
-1 -3 0
-2 -3 0
4 5 6 0
-4 -5 0
-4 -6 0
-5 -6 0
7 8 9 0
-7 -8 0
-7 -9 0
-8 -9 0
10 11 12 0
-10 -11 0
-10 -12 0
-11 -12 0
13 14 15 0
-13 -14 0
-13 -15 0
-14 -15 0
16 17 18 0
-16 -17 0
-16 -18 0
-17 -18 0
19 20 21 0
-19 -20 0
-19 -21 0
-20 -21 0
22 23 24 0
-22 -23 0
-22 -24 0
-23 -24 0
25 26 27 0
-25 -26 0
-25 -27 0
-26 -27 0
28 29 30 0
-28 -29 0
-28 -30 0
-29 -30 0
28 0
